Version identifier: 22.1.1.0 | 2022-11-28 | 9160aff4d
CPXPARAM_ClockType                               1
CPXPARAM_Read_DataCheck                          1
CPXPARAM_Threads                                 1
CPXPARAM_TimeLimit                               7200
CPXPARAM_MIP_Tolerances_AbsMIPGap                0
CPXPARAM_MIP_Tolerances_MIPGap                   0
CPXPARAM_MIP_Tolerances_Integrality              0
Tried aggregator 1 time.
MIP Presolve eliminated 138307 rows and 4 columns.
MIP Presolve modified 61978 coefficients.
Reduced MIP has 76296 rows, 15041 columns, and 385901 nonzeros.
Reduced MIP has 15041 binaries, 0 generals, 0 SOSs, and 0 indicators.
Presolve time = 1.78 sec. (1027.05 ticks)
Probing time = 0.03 sec. (7.44 ticks)
Tried aggregator 1 time.
Detecting symmetries...
MIP Presolve eliminated 270 rows and 0 columns.
Reduced MIP has 76026 rows, 15041 columns, and 381311 nonzeros.
Reduced MIP has 15041 binaries, 0 generals, 0 SOSs, and 0 indicators.
Presolve time = 0.93 sec. (545.01 ticks)
Probing time = 0.03 sec. (7.11 ticks)
Clique table members: 92450.
MIP emphasis: balance optimality and feasibility.
MIP search method: dynamic search.
Parallel mode: none, using 1 thread.
Root relaxation solution time = 139.28 sec. (39900.46 ticks)

        Nodes                                         Cuts/
   Node  Left     Objective  IInf  Best Integer    Best Bound    ItCnt     Gap

      0     0     1319.1333  3243                   1319.1333   101692         
      0     0     1180.0000  2718                   Cuts: 284   490665         

GUB cover cuts applied:  2
Clique cuts applied:  349
Implied bound cuts applied:  4
Zero-half cuts applied:  342
Lift and project cuts applied:  5

Root node processing (before b&c):
  Real time             = 7200.13 sec. (2915770.82 ticks)
Sequential b&c:
  Real time             =    0.00 sec. (0.00 ticks)
                          ------------
Total (root+branch&cut) = 7200.13 sec. (2915770.82 ticks)
Solution is infeasible.

---------------------
@@@ MIP_time_limit_infeasible
Traceback (most recent call last):
  File "/scratch/scherif/DiverseSAT-journal_sup/DiverseSAT_Supplementary_Experiments/experiment-1/cplex/jobs/../solvers/CPLEX-DW-SE.py", line 104, in <module>
    print(f">>> Benchmark {os.path.basename(cnf_file)} k {k} OPT {int(prob.solution.get_objective_value())}"
  File "/users/scherif/.local/lib/python3.9/site-packages/cplex/_internal/_subinterfaces.py", line 7211, in get_objective_value
    return CPX_PROC.getobjval(self._env._e, self._cplex._lp)
  File "/users/scherif/.local/lib/python3.9/site-packages/cplex/_internal/_procedural.py", line 2055, in getobjval
    check_status(env, status)
  File "/users/scherif/.local/lib/python3.9/site-packages/cplex/_internal/_procedural.py", line 249, in __call__
    raise CplexSolverError(error_string, env, status)
cplex.exceptions.errors.CplexSolverError: CPLEX Error  1217: No solution exists.
